p cnf 336 2689
1 0
250 0
67 0
76 0
261 0
94 0
247 0
-1 -265 0
-2 -266 0
-3 -267 0
-4 -268 0
-5 -269 0
-6 -270 0
-7 -271 0
-8 -272 0
-1 -225 0
-2 -226 0
-3 -227 0
-4 -228 0
-5 -229 0
-6 -230 0
-7 -231 0
-8 -232 0
-1 -145 0
-2 -146 0
-3 -147 0
-4 -148 0
-5 -149 0
-6 -150 0
-7 -151 0
-8 -152 0
-1 -313 0
-2 -314 0
-3 -315 0
-4 -316 0
-5 -317 0
-6 -318 0
-7 -319 0
-8 -320 0
-1 -49 0
-2 -50 0
-3 -51 0
-4 -52 0
-5 -53 0
-6 -54 0
-7 -55 0
-8 -56 0
-1 -65 0
-2 -66 0
-3 -67 0
-4 -68 0
-5 -69 0
-6 -70 0
-7 -71 0
-8 -72 0
-1 -249 0
-2 -250 0
-3 -251 0
-4 -252 0
-5 -253 0
-6 -254 0
-7 -255 0
-8 -256 0
-1 -257 0
-2 -258 0
-3 -259 0
-4 -260 0
-5 -261 0
-6 -262 0
-7 -263 0
-8 -264 0
-1 -89 0
-2 -90 0
-3 -91 0
-4 -92 0
-5 -93 0
-6 -94 0
-7 -95 0
-8 -96 0
-1 -81 0
-2 -82 0
-3 -83 0
-4 -84 0
-5 -85 0
-6 -86 0
-7 -87 0
-8 -88 0
-1 -209 0
-2 -210 0
-3 -211 0
-4 -212 0
-5 -213 0
-6 -214 0
-7 -215 0
-8 -216 0
-1 -281 0
-2 -282 0
-3 -283 0
-4 -284 0
-5 -285 0
-6 -286 0
-7 -287 0
-8 -288 0
-1 -241 0
-2 -242 0
-3 -243 0
-4 -244 0
-5 -245 0
-6 -246 0
-7 -247 0
-8 -248 0
-1 -25 0
-2 -26 0
-3 -27 0
-4 -28 0
-5 -29 0
-6 -30 0
-7 -31 0
-8 -32 0
-1 -73 0
-2 -74 0
-3 -75 0
-4 -76 0
-5 -77 0
-6 -78 0
-7 -79 0
-8 -80 0
-9 -113 0
-10 -114 0
-11 -115 0
-12 -116 0
-13 -117 0
-14 -118 0
-15 -119 0
-16 -120 0
-9 -321 0
-10 -322 0
-11 -323 0
-12 -324 0
-13 -325 0
-14 -326 0
-15 -327 0
-16 -328 0
-9 -177 0
-10 -178 0
-11 -179 0
-12 -180 0
-13 -181 0
-14 -182 0
-15 -183 0
-16 -184 0
-9 -97 0
-10 -98 0
-11 -99 0
-12 -100 0
-13 -101 0
-14 -102 0
-15 -103 0
-16 -104 0
-9 -129 0
-10 -130 0
-11 -131 0
-12 -132 0
-13 -133 0
-14 -134 0
-15 -135 0
-16 -136 0
-9 -17 0
-10 -18 0
-11 -19 0
-12 -20 0
-13 -21 0
-14 -22 0
-15 -23 0
-16 -24 0
-9 -201 0
-10 -202 0
-11 -203 0
-12 -204 0
-13 -205 0
-14 -206 0
-15 -207 0
-16 -208 0
-9 -121 0
-10 -122 0
-11 -123 0
-12 -124 0
-13 -125 0
-14 -126 0
-15 -127 0
-16 -128 0
-9 -297 0
-10 -298 0
-11 -299 0
-12 -300 0
-13 -301 0
-14 -302 0
-15 -303 0
-16 -304 0
-9 -105 0
-10 -106 0
-11 -107 0
-12 -108 0
-13 -109 0
-14 -110 0
-15 -111 0
-16 -112 0
-9 -153 0
-10 -154 0
-11 -155 0
-12 -156 0
-13 -157 0
-14 -158 0
-15 -159 0
-16 -160 0
-9 -137 0
-10 -138 0
-11 -139 0
-12 -140 0
-13 -141 0
-14 -142 0
-15 -143 0
-16 -144 0
-9 -217 0
-10 -218 0
-11 -219 0
-12 -220 0
-13 -221 0
-14 -222 0
-15 -223 0
-16 -224 0
-9 -329 0
-10 -330 0
-11 -331 0
-12 -332 0
-13 -333 0
-14 -334 0
-15 -335 0
-16 -336 0
-9 -169 0
-10 -170 0
-11 -171 0
-12 -172 0
-13 -173 0
-14 -174 0
-15 -175 0
-16 -176 0
-17 -321 0
-18 -322 0
-19 -323 0
-20 -324 0
-21 -325 0
-22 -326 0
-23 -327 0
-24 -328 0
-17 -177 0
-18 -178 0
-19 -179 0
-20 -180 0
-21 -181 0
-22 -182 0
-23 -183 0
-24 -184 0
-17 -97 0
-18 -98 0
-19 -99 0
-20 -100 0
-21 -101 0
-22 -102 0
-23 -103 0
-24 -104 0
-17 -201 0
-18 -202 0
-19 -203 0
-20 -204 0
-21 -205 0
-22 -206 0
-23 -207 0
-24 -208 0
-17 -121 0
-18 -122 0
-19 -123 0
-20 -124 0
-21 -125 0
-22 -126 0
-23 -127 0
-24 -128 0
-17 -297 0
-18 -298 0
-19 -299 0
-20 -300 0
-21 -301 0
-22 -302 0
-23 -303 0
-24 -304 0
-17 -257 0
-18 -258 0
-19 -259 0
-20 -260 0
-21 -261 0
-22 -262 0
-23 -263 0
-24 -264 0
-17 -81 0
-18 -82 0
-19 -83 0
-20 -84 0
-21 -85 0
-22 -86 0
-23 -87 0
-24 -88 0
-17 -105 0
-18 -106 0
-19 -107 0
-20 -108 0
-21 -109 0
-22 -110 0
-23 -111 0
-24 -112 0
-17 -129 0
-18 -130 0
-19 -131 0
-20 -132 0
-21 -133 0
-22 -134 0
-23 -135 0
-24 -136 0
-17 -217 0
-18 -218 0
-19 -219 0
-20 -220 0
-21 -221 0
-22 -222 0
-23 -223 0
-24 -224 0
-17 -329 0
-18 -330 0
-19 -331 0
-20 -332 0
-21 -333 0
-22 -334 0
-23 -335 0
-24 -336 0
-17 -241 0
-18 -242 0
-19 -243 0
-20 -244 0
-21 -245 0
-22 -246 0
-23 -247 0
-24 -248 0
-17 -305 0
-18 -306 0
-19 -307 0
-20 -308 0
-21 -309 0
-22 -310 0
-23 -311 0
-24 -312 0
-17 -169 0
-18 -170 0
-19 -171 0
-20 -172 0
-21 -173 0
-22 -174 0
-23 -175 0
-24 -176 0
-25 -289 0
-26 -290 0
-27 -291 0
-28 -292 0
-29 -293 0
-30 -294 0
-31 -295 0
-32 -296 0
-25 -265 0
-26 -266 0
-27 -267 0
-28 -268 0
-29 -269 0
-30 -270 0
-31 -271 0
-32 -272 0
-25 -225 0
-26 -226 0
-27 -227 0
-28 -228 0
-29 -229 0
-30 -230 0
-31 -231 0
-32 -232 0
-25 -145 0
-26 -146 0
-27 -147 0
-28 -148 0
-29 -149 0
-30 -150 0
-31 -151 0
-32 -152 0
-25 -33 0
-26 -34 0
-27 -35 0
-28 -36 0
-29 -37 0
-30 -38 0
-31 -39 0
-32 -40 0
-25 -121 0
-26 -122 0
-27 -123 0
-28 -124 0
-29 -125 0
-30 -126 0
-31 -127 0
-32 -128 0
-25 -249 0
-26 -250 0
-27 -251 0
-28 -252 0
-29 -253 0
-30 -254 0
-31 -255 0
-32 -256 0
-25 -257 0
-26 -258 0
-27 -259 0
-28 -260 0
-29 -261 0
-30 -262 0
-31 -263 0
-32 -264 0
-25 -89 0
-26 -90 0
-27 -91 0
-28 -92 0
-29 -93 0
-30 -94 0
-31 -95 0
-32 -96 0
-25 -81 0
-26 -82 0
-27 -83 0
-28 -84 0
-29 -85 0
-30 -86 0
-31 -87 0
-32 -88 0
-25 -105 0
-26 -106 0
-27 -107 0
-28 -108 0
-29 -109 0
-30 -110 0
-31 -111 0
-32 -112 0
-25 -209 0
-26 -210 0
-27 -211 0
-28 -212 0
-29 -213 0
-30 -214 0
-31 -215 0
-32 -216 0
-25 -217 0
-26 -218 0
-27 -219 0
-28 -220 0
-29 -221 0
-30 -222 0
-31 -223 0
-32 -224 0
-25 -305 0
-26 -306 0
-27 -307 0
-28 -308 0
-29 -309 0
-30 -310 0
-31 -311 0
-32 -312 0
-33 -289 0
-34 -290 0
-35 -291 0
-36 -292 0
-37 -293 0
-38 -294 0
-39 -295 0
-40 -296 0
-33 -233 0
-34 -234 0
-35 -235 0
-36 -236 0
-37 -237 0
-38 -238 0
-39 -239 0
-40 -240 0
-33 -185 0
-34 -186 0
-35 -187 0
-36 -188 0
-37 -189 0
-38 -190 0
-39 -191 0
-40 -192 0
-33 -161 0
-34 -162 0
-35 -163 0
-36 -164 0
-37 -165 0
-38 -166 0
-39 -167 0
-40 -168 0
-33 -321 0
-34 -322 0
-35 -323 0
-36 -324 0
-37 -325 0
-38 -326 0
-39 -327 0
-40 -328 0
-33 -265 0
-34 -266 0
-35 -267 0
-36 -268 0
-37 -269 0
-38 -270 0
-39 -271 0
-40 -272 0
-33 -225 0
-34 -226 0
-35 -227 0
-36 -228 0
-37 -229 0
-38 -230 0
-39 -231 0
-40 -232 0
-33 -201 0
-34 -202 0
-35 -203 0
-36 -204 0
-37 -205 0
-38 -206 0
-39 -207 0
-40 -208 0
-33 -121 0
-34 -122 0
-35 -123 0
-36 -124 0
-37 -125 0
-38 -126 0
-39 -127 0
-40 -128 0
-33 -209 0
-34 -210 0
-35 -211 0
-36 -212 0
-37 -213 0
-38 -214 0
-39 -215 0
-40 -216 0
-33 -305 0
-34 -306 0
-35 -307 0
-36 -308 0
-37 -309 0
-38 -310 0
-39 -311 0
-40 -312 0
-33 -81 0
-34 -82 0
-35 -83 0
-36 -84 0
-37 -85 0
-38 -86 0
-39 -87 0
-40 -88 0
-33 -129 0
-34 -130 0
-35 -131 0
-36 -132 0
-37 -133 0
-38 -134 0
-39 -135 0
-40 -136 0
-33 -153 0
-34 -154 0
-35 -155 0
-36 -156 0
-37 -157 0
-38 -158 0
-39 -159 0
-40 -160 0
-33 -217 0
-34 -218 0
-35 -219 0
-36 -220 0
-37 -221 0
-38 -222 0
-39 -223 0
-40 -224 0
-41 -233 0
-42 -234 0
-43 -235 0
-44 -236 0
-45 -237 0
-46 -238 0
-47 -239 0
-48 -240 0
-41 -185 0
-42 -186 0
-43 -187 0
-44 -188 0
-45 -189 0
-46 -190 0
-47 -191 0
-48 -192 0
-41 -161 0
-42 -162 0
-43 -163 0
-44 -164 0
-45 -165 0
-46 -166 0
-47 -167 0
-48 -168 0
-41 -113 0
-42 -114 0
-43 -115 0
-44 -116 0
-45 -117 0
-46 -118 0
-47 -119 0
-48 -120 0
-41 -273 0
-42 -274 0
-43 -275 0
-44 -276 0
-45 -277 0
-46 -278 0
-47 -279 0
-48 -280 0
-41 -193 0
-42 -194 0
-43 -195 0
-44 -196 0
-45 -197 0
-46 -198 0
-47 -199 0
-48 -200 0
-41 -137 0
-42 -138 0
-43 -139 0
-44 -140 0
-45 -141 0
-46 -142 0
-47 -143 0
-48 -144 0
-41 -321 0
-42 -322 0
-43 -323 0
-44 -324 0
-45 -325 0
-46 -326 0
-47 -327 0
-48 -328 0
-41 -177 0
-42 -178 0
-43 -179 0
-44 -180 0
-45 -181 0
-46 -182 0
-47 -183 0
-48 -184 0
-41 -313 0
-42 -314 0
-43 -315 0
-44 -316 0
-45 -317 0
-46 -318 0
-47 -319 0
-48 -320 0
-41 -49 0
-42 -50 0
-43 -51 0
-44 -52 0
-45 -53 0
-46 -54 0
-47 -55 0
-48 -56 0
-41 -297 0
-42 -298 0
-43 -299 0
-44 -300 0
-45 -301 0
-46 -302 0
-47 -303 0
-48 -304 0
-41 -153 0
-42 -154 0
-43 -155 0
-44 -156 0
-45 -157 0
-46 -158 0
-47 -159 0
-48 -160 0
-41 -281 0
-42 -282 0
-43 -283 0
-44 -284 0
-45 -285 0
-46 -286 0
-47 -287 0
-48 -288 0
-41 -57 0
-42 -58 0
-43 -59 0
-44 -60 0
-45 -61 0
-46 -62 0
-47 -63 0
-48 -64 0
-49 -145 0
-50 -146 0
-51 -147 0
-52 -148 0
-53 -149 0
-54 -150 0
-55 -151 0
-56 -152 0
-49 -313 0
-50 -314 0
-51 -315 0
-52 -316 0
-53 -317 0
-54 -318 0
-55 -319 0
-56 -320 0
-49 -193 0
-50 -194 0
-51 -195 0
-52 -196 0
-53 -197 0
-54 -198 0
-55 -199 0
-56 -200 0
-49 -65 0
-50 -66 0
-51 -67 0
-52 -68 0
-53 -69 0
-54 -70 0
-55 -71 0
-56 -72 0
-49 -57 0
-50 -58 0
-51 -59 0
-52 -60 0
-53 -61 0
-54 -62 0
-55 -63 0
-56 -64 0
-49 -73 0
-50 -74 0
-51 -75 0
-52 -76 0
-53 -77 0
-54 -78 0
-55 -79 0
-56 -80 0
-49 -297 0
-50 -298 0
-51 -299 0
-52 -300 0
-53 -301 0
-54 -302 0
-55 -303 0
-56 -304 0
-49 -249 0
-50 -250 0
-51 -251 0
-52 -252 0
-53 -253 0
-54 -254 0
-55 -255 0
-56 -256 0
-49 -281 0
-50 -282 0
-51 -283 0
-52 -284 0
-53 -285 0
-54 -286 0
-55 -287 0
-56 -288 0
-49 -273 0
-50 -274 0
-51 -275 0
-52 -276 0
-53 -277 0
-54 -278 0
-55 -279 0
-56 -280 0
-49 -137 0
-50 -138 0
-51 -139 0
-52 -140 0
-53 -141 0
-54 -142 0
-55 -143 0
-56 -144 0
-49 -241 0
-50 -242 0
-51 -243 0
-52 -244 0
-53 -245 0
-54 -246 0
-55 -247 0
-56 -248 0
-49 -169 0
-50 -170 0
-51 -171 0
-52 -172 0
-53 -173 0
-54 -174 0
-55 -175 0
-56 -176 0
-57 -113 0
-58 -114 0
-59 -115 0
-60 -116 0
-61 -117 0
-62 -118 0
-63 -119 0
-64 -120 0
-57 -177 0
-58 -178 0
-59 -179 0
-60 -180 0
-61 -181 0
-62 -182 0
-63 -183 0
-64 -184 0
-57 -97 0
-58 -98 0
-59 -99 0
-60 -100 0
-61 -101 0
-62 -102 0
-63 -103 0
-64 -104 0
-57 -313 0
-58 -314 0
-59 -315 0
-60 -316 0
-61 -317 0
-62 -318 0
-63 -319 0
-64 -320 0
-57 -193 0
-58 -194 0
-59 -195 0
-60 -196 0
-61 -197 0
-62 -198 0
-63 -199 0
-64 -200 0
-57 -297 0
-58 -298 0
-59 -299 0
-60 -300 0
-61 -301 0
-62 -302 0
-63 -303 0
-64 -304 0
-57 -65 0
-58 -66 0
-59 -67 0
-60 -68 0
-61 -69 0
-62 -70 0
-63 -71 0
-64 -72 0
-57 -249 0
-58 -250 0
-59 -251 0
-60 -252 0
-61 -253 0
-62 -254 0
-63 -255 0
-64 -256 0
-57 -273 0
-58 -274 0
-59 -275 0
-60 -276 0
-61 -277 0
-62 -278 0
-63 -279 0
-64 -280 0
-57 -137 0
-58 -138 0
-59 -139 0
-60 -140 0
-61 -141 0
-62 -142 0
-63 -143 0
-64 -144 0
-57 -73 0
-58 -74 0
-59 -75 0
-60 -76 0
-61 -77 0
-62 -78 0
-63 -79 0
-64 -80 0
-57 -169 0
-58 -170 0
-59 -171 0
-60 -172 0
-61 -173 0
-62 -174 0
-63 -175 0
-64 -176 0
-57 -241 0
-58 -242 0
-59 -243 0
-60 -244 0
-61 -245 0
-62 -246 0
-63 -247 0
-64 -248 0
-57 -329 0
-58 -330 0
-59 -331 0
-60 -332 0
-61 -333 0
-62 -334 0
-63 -335 0
-64 -336 0
-65 -265 0
-66 -266 0
-67 -267 0
-68 -268 0
-69 -269 0
-70 -270 0
-71 -271 0
-72 -272 0
-65 -225 0
-66 -226 0
-67 -227 0
-68 -228 0
-69 -229 0
-70 -230 0
-71 -231 0
-72 -232 0
-65 -145 0
-66 -146 0
-67 -147 0
-68 -148 0
-69 -149 0
-70 -150 0
-71 -151 0
-72 -152 0
-65 -313 0
-66 -314 0
-67 -315 0
-68 -316 0
-69 -317 0
-70 -318 0
-71 -319 0
-72 -320 0
-65 -193 0
-66 -194 0
-67 -195 0
-68 -196 0
-69 -197 0
-70 -198 0
-71 -199 0
-72 -200 0
-65 -249 0
-66 -250 0
-67 -251 0
-68 -252 0
-69 -253 0
-70 -254 0
-71 -255 0
-72 -256 0
-65 -73 0
-66 -74 0
-67 -75 0
-68 -76 0
-69 -77 0
-70 -78 0
-71 -79 0
-72 -80 0
-65 -257 0
-66 -258 0
-67 -259 0
-68 -260 0
-69 -261 0
-70 -262 0
-71 -263 0
-72 -264 0
-65 -89 0
-66 -90 0
-67 -91 0
-68 -92 0
-69 -93 0
-70 -94 0
-71 -95 0
-72 -96 0
-65 -281 0
-66 -282 0
-67 -283 0
-68 -284 0
-69 -285 0
-70 -286 0
-71 -287 0
-72 -288 0
-65 -273 0
-66 -274 0
-67 -275 0
-68 -276 0
-69 -277 0
-70 -278 0
-71 -279 0
-72 -280 0
-65 -241 0
-66 -242 0
-67 -243 0
-68 -244 0
-69 -245 0
-70 -246 0
-71 -247 0
-72 -248 0
-65 -169 0
-66 -170 0
-67 -171 0
-68 -172 0
-69 -173 0
-70 -174 0
-71 -175 0
-72 -176 0
-73 -97 0
-74 -98 0
-75 -99 0
-76 -100 0
-77 -101 0
-78 -102 0
-79 -103 0
-80 -104 0
-73 -145 0
-74 -146 0
-75 -147 0
-76 -148 0
-77 -149 0
-78 -150 0
-79 -151 0
-80 -152 0
-73 -313 0
-74 -314 0
-75 -315 0
-76 -316 0
-77 -317 0
-78 -318 0
-79 -319 0
-80 -320 0
-73 -193 0
-74 -194 0
-75 -195 0
-76 -196 0
-77 -197 0
-78 -198 0
-79 -199 0
-80 -200 0
-73 -297 0
-74 -298 0
-75 -299 0
-76 -300 0
-77 -301 0
-78 -302 0
-79 -303 0
-80 -304 0
-73 -249 0
-74 -250 0
-75 -251 0
-76 -252 0
-77 -253 0
-78 -254 0
-79 -255 0
-80 -256 0
-73 -257 0
-74 -258 0
-75 -259 0
-76 -260 0
-77 -261 0
-78 -262 0
-79 -263 0
-80 -264 0
-73 -89 0
-74 -90 0
-75 -91 0
-76 -92 0
-77 -93 0
-78 -94 0
-79 -95 0
-80 -96 0
-73 -137 0
-74 -138 0
-75 -139 0
-76 -140 0
-77 -141 0
-78 -142 0
-79 -143 0
-80 -144 0
-73 -241 0
-74 -242 0
-75 -243 0
-76 -244 0
-77 -245 0
-78 -246 0
-79 -247 0
-80 -248 0
-73 -329 0
-74 -330 0
-75 -331 0
-76 -332 0
-77 -333 0
-78 -334 0
-79 -335 0
-80 -336 0
-73 -169 0
-74 -170 0
-75 -171 0
-76 -172 0
-77 -173 0
-78 -174 0
-79 -175 0
-80 -176 0
-81 -225 0
-82 -226 0
-83 -227 0
-84 -228 0
-85 -229 0
-86 -230 0
-87 -231 0
-88 -232 0
-81 -121 0
-82 -122 0
-83 -123 0
-84 -124 0
-85 -125 0
-86 -126 0
-87 -127 0
-88 -128 0
-81 -249 0
-82 -250 0
-83 -251 0
-84 -252 0
-85 -253 0
-86 -254 0
-87 -255 0
-88 -256 0
-81 -257 0
-82 -258 0
-83 -259 0
-84 -260 0
-85 -261 0
-86 -262 0
-87 -263 0
-88 -264 0
-81 -89 0
-82 -90 0
-83 -91 0
-84 -92 0
-85 -93 0
-86 -94 0
-87 -95 0
-88 -96 0
-81 -105 0
-82 -106 0
-83 -107 0
-84 -108 0
-85 -109 0
-86 -110 0
-87 -111 0
-88 -112 0
-81 -217 0
-82 -218 0
-83 -219 0
-84 -220 0
-85 -221 0
-86 -222 0
-87 -223 0
-88 -224 0
-81 -305 0
-82 -306 0
-83 -307 0
-84 -308 0
-85 -309 0
-86 -310 0
-87 -311 0
-88 -312 0
-81 -129 0
-82 -130 0
-83 -131 0
-84 -132 0
-85 -133 0
-86 -134 0
-87 -135 0
-88 -136 0
-81 -209 0
-82 -210 0
-83 -211 0
-84 -212 0
-85 -213 0
-86 -214 0
-87 -215 0
-88 -216 0
-81 -241 0
-82 -242 0
-83 -243 0
-84 -244 0
-85 -245 0
-86 -246 0
-87 -247 0
-88 -248 0
-81 -329 0
-82 -330 0
-83 -331 0
-84 -332 0
-85 -333 0
-86 -334 0
-87 -335 0
-88 -336 0
-89 -265 0
-90 -266 0
-91 -267 0
-92 -268 0
-93 -269 0
-94 -270 0
-95 -271 0
-96 -272 0
-89 -225 0
-90 -226 0
-91 -227 0
-92 -228 0
-93 -229 0
-94 -230 0
-95 -231 0
-96 -232 0
-89 -145 0
-90 -146 0
-91 -147 0
-92 -148 0
-93 -149 0
-94 -150 0
-95 -151 0
-96 -152 0
-89 -249 0
-90 -250 0
-91 -251 0
-92 -252 0
-93 -253 0
-94 -254 0
-95 -255 0
-96 -256 0
-89 -257 0
-90 -258 0
-91 -259 0
-92 -260 0
-93 -261 0
-94 -262 0
-95 -263 0
-96 -264 0
-89 -105 0
-90 -106 0
-91 -107 0
-92 -108 0
-93 -109 0
-94 -110 0
-95 -111 0
-96 -112 0
-89 -209 0
-90 -210 0
-91 -211 0
-92 -212 0
-93 -213 0
-94 -214 0
-95 -215 0
-96 -216 0
-89 -241 0
-90 -242 0
-91 -243 0
-92 -244 0
-93 -245 0
-94 -246 0
-95 -247 0
-96 -248 0
-89 -217 0
-90 -218 0
-91 -219 0
-92 -220 0
-93 -221 0
-94 -222 0
-95 -223 0
-96 -224 0
-89 -329 0
-90 -330 0
-91 -331 0
-92 -332 0
-93 -333 0
-94 -334 0
-95 -335 0
-96 -336 0
-89 -305 0
-90 -306 0
-91 -307 0
-92 -308 0
-93 -309 0
-94 -310 0
-95 -311 0
-96 -312 0
-97 -113 0
-98 -114 0
-99 -115 0
-100 -116 0
-101 -117 0
-102 -118 0
-103 -119 0
-104 -120 0
-97 -321 0
-98 -322 0
-99 -323 0
-100 -324 0
-101 -325 0
-102 -326 0
-103 -327 0
-104 -328 0
-97 -177 0
-98 -178 0
-99 -179 0
-100 -180 0
-101 -181 0
-102 -182 0
-103 -183 0
-104 -184 0
-97 -297 0
-98 -298 0
-99 -299 0
-100 -300 0
-101 -301 0
-102 -302 0
-103 -303 0
-104 -304 0
-97 -329 0
-98 -330 0
-99 -331 0
-100 -332 0
-101 -333 0
-102 -334 0
-103 -335 0
-104 -336 0
-97 -169 0
-98 -170 0
-99 -171 0
-100 -172 0
-101 -173 0
-102 -174 0
-103 -175 0
-104 -176 0
-97 -257 0
-98 -258 0
-99 -259 0
-100 -260 0
-101 -261 0
-102 -262 0
-103 -263 0
-104 -264 0
-97 -105 0
-98 -106 0
-99 -107 0
-100 -108 0
-101 -109 0
-102 -110 0
-103 -111 0
-104 -112 0
-97 -129 0
-98 -130 0
-99 -131 0
-100 -132 0
-101 -133 0
-102 -134 0
-103 -135 0
-104 -136 0
-97 -137 0
-98 -138 0
-99 -139 0
-100 -140 0
-101 -141 0
-102 -142 0
-103 -143 0
-104 -144 0
-97 -241 0
-98 -242 0
-99 -243 0
-100 -244 0
-101 -245 0
-102 -246 0
-103 -247 0
-104 -248 0
-97 -217 0
-98 -218 0
-99 -219 0
-100 -220 0
-101 -221 0
-102 -222 0
-103 -223 0
-104 -224 0
-105 -121 0
-106 -122 0
-107 -123 0
-108 -124 0
-109 -125 0
-110 -126 0
-111 -127 0
-112 -128 0
-105 -249 0
-106 -250 0
-107 -251 0
-108 -252 0
-109 -253 0
-110 -254 0
-111 -255 0
-112 -256 0
-105 -257 0
-106 -258 0
-107 -259 0
-108 -260 0
-109 -261 0
-110 -262 0
-111 -263 0
-112 -264 0
-105 -217 0
-106 -218 0
-107 -219 0
-108 -220 0
-109 -221 0
-110 -222 0
-111 -223 0
-112 -224 0
-105 -329 0
-106 -330 0
-107 -331 0
-108 -332 0
-109 -333 0
-110 -334 0
-111 -335 0
-112 -336 0
-105 -129 0
-106 -130 0
-107 -131 0
-108 -132 0
-109 -133 0
-110 -134 0
-111 -135 0
-112 -136 0
-105 -241 0
-106 -242 0
-107 -243 0
-108 -244 0
-109 -245 0
-110 -246 0
-111 -247 0
-112 -248 0
-105 -305 0
-106 -306 0
-107 -307 0
-108 -308 0
-109 -309 0
-110 -310 0
-111 -311 0
-112 -312 0
-105 -169 0
-106 -170 0
-107 -171 0
-108 -172 0
-109 -173 0
-110 -174 0
-111 -175 0
-112 -176 0
-113 -233 0
-114 -234 0
-115 -235 0
-116 -236 0
-117 -237 0
-118 -238 0
-119 -239 0
-120 -240 0
-113 -185 0
-114 -186 0
-115 -187 0
-116 -188 0
-117 -189 0
-118 -190 0
-119 -191 0
-120 -192 0
-113 -161 0
-114 -162 0
-115 -163 0
-116 -164 0
-117 -165 0
-118 -166 0
-119 -167 0
-120 -168 0
-113 -177 0
-114 -178 0
-115 -179 0
-116 -180 0
-117 -181 0
-118 -182 0
-119 -183 0
-120 -184 0
-113 -321 0
-114 -322 0
-115 -323 0
-116 -324 0
-117 -325 0
-118 -326 0
-119 -327 0
-120 -328 0
-113 -153 0
-114 -154 0
-115 -155 0
-116 -156 0
-117 -157 0
-118 -158 0
-119 -159 0
-120 -160 0
-113 -137 0
-114 -138 0
-115 -139 0
-116 -140 0
-117 -141 0
-118 -142 0
-119 -143 0
-120 -144 0
-113 -201 0
-114 -202 0
-115 -203 0
-116 -204 0
-117 -205 0
-118 -206 0
-119 -207 0
-120 -208 0
-113 -193 0
-114 -194 0
-115 -195 0
-116 -196 0
-117 -197 0
-118 -198 0
-119 -199 0
-120 -200 0
-113 -297 0
-114 -298 0
-115 -299 0
-116 -300 0
-117 -301 0
-118 -302 0
-119 -303 0
-120 -304 0
-113 -129 0
-114 -130 0
-115 -131 0
-116 -132 0
-117 -133 0
-118 -134 0
-119 -135 0
-120 -136 0
-113 -273 0
-114 -274 0
-115 -275 0
-116 -276 0
-117 -277 0
-118 -278 0
-119 -279 0
-120 -280 0
-121 -289 0
-122 -290 0
-123 -291 0
-124 -292 0
-125 -293 0
-126 -294 0
-127 -295 0
-128 -296 0
-121 -233 0
-122 -234 0
-123 -235 0
-124 -236 0
-125 -237 0
-126 -238 0
-127 -239 0
-128 -240 0
-121 -321 0
-122 -322 0
-123 -323 0
-124 -324 0
-125 -325 0
-126 -326 0
-127 -327 0
-128 -328 0
-121 -201 0
-122 -202 0
-123 -203 0
-124 -204 0
-125 -205 0
-126 -206 0
-127 -207 0
-128 -208 0
-121 -129 0
-122 -130 0
-123 -131 0
-124 -132 0
-125 -133 0
-126 -134 0
-127 -135 0
-128 -136 0
-121 -217 0
-122 -218 0
-123 -219 0
-124 -220 0
-125 -221 0
-126 -222 0
-127 -223 0
-128 -224 0
-121 -305 0
-122 -306 0
-123 -307 0
-124 -308 0
-125 -309 0
-126 -310 0
-127 -311 0
-128 -312 0
-121 -153 0
-122 -154 0
-123 -155 0
-124 -156 0
-125 -157 0
-126 -158 0
-127 -159 0
-128 -160 0
-121 -209 0
-122 -210 0
-123 -211 0
-124 -212 0
-125 -213 0
-126 -214 0
-127 -215 0
-128 -216 0
-129 -233 0
-130 -234 0
-131 -235 0
-132 -236 0
-133 -237 0
-134 -238 0
-135 -239 0
-136 -240 0
-129 -321 0
-130 -322 0
-131 -323 0
-132 -324 0
-133 -325 0
-134 -326 0
-135 -327 0
-136 -328 0
-129 -177 0
-130 -178 0
-131 -179 0
-132 -180 0
-133 -181 0
-134 -182 0
-135 -183 0
-136 -184 0
-129 -201 0
-130 -202 0
-131 -203 0
-132 -204 0
-133 -205 0
-134 -206 0
-135 -207 0
-136 -208 0
-129 -217 0
-130 -218 0
-131 -219 0
-132 -220 0
-133 -221 0
-134 -222 0
-135 -223 0
-136 -224 0
-129 -153 0
-130 -154 0
-131 -155 0
-132 -156 0
-133 -157 0
-134 -158 0
-135 -159 0
-136 -160 0
-129 -329 0
-130 -330 0
-131 -331 0
-132 -332 0
-133 -333 0
-134 -334 0
-135 -335 0
-136 -336 0
-129 -305 0
-130 -306 0
-131 -307 0
-132 -308 0
-133 -309 0
-134 -310 0
-135 -311 0
-136 -312 0
-137 -161 0
-138 -162 0
-139 -163 0
-140 -164 0
-141 -165 0
-142 -166 0
-143 -167 0
-144 -168 0
-137 -321 0
-138 -322 0
-139 -323 0
-140 -324 0
-141 -325 0
-142 -326 0
-143 -327 0
-144 -328 0
-137 -177 0
-138 -178 0
-139 -179 0
-140 -180 0
-141 -181 0
-142 -182 0
-143 -183 0
-144 -184 0
-137 -313 0
-138 -314 0
-139 -315 0
-140 -316 0
-141 -317 0
-142 -318 0
-143 -319 0
-144 -320 0
-137 -193 0
-138 -194 0
-139 -195 0
-140 -196 0
-141 -197 0
-142 -198 0
-143 -199 0
-144 -200 0
-137 -297 0
-138 -298 0
-139 -299 0
-140 -300 0
-141 -301 0
-142 -302 0
-143 -303 0
-144 -304 0
-137 -153 0
-138 -154 0
-139 -155 0
-140 -156 0
-141 -157 0
-142 -158 0
-143 -159 0
-144 -160 0
-137 -273 0
-138 -274 0
-139 -275 0
-140 -276 0
-141 -277 0
-142 -278 0
-143 -279 0
-144 -280 0
-137 -169 0
-138 -170 0
-139 -171 0
-140 -172 0
-141 -173 0
-142 -174 0
-143 -175 0
-144 -176 0
-145 -289 0
-146 -290 0
-147 -291 0
-148 -292 0
-149 -293 0
-150 -294 0
-151 -295 0
-152 -296 0
-145 -185 0
-146 -186 0
-147 -187 0
-148 -188 0
-149 -189 0
-150 -190 0
-151 -191 0
-152 -192 0
-145 -265 0
-146 -266 0
-147 -267 0
-148 -268 0
-149 -269 0
-150 -270 0
-151 -271 0
-152 -272 0
-145 -225 0
-146 -226 0
-147 -227 0
-148 -228 0
-149 -229 0
-150 -230 0
-151 -231 0
-152 -232 0
-145 -313 0
-146 -314 0
-147 -315 0
-148 -316 0
-149 -317 0
-150 -318 0
-151 -319 0
-152 -320 0
-145 -281 0
-146 -282 0
-147 -283 0
-148 -284 0
-149 -285 0
-150 -286 0
-151 -287 0
-152 -288 0
-145 -193 0
-146 -194 0
-147 -195 0
-148 -196 0
-149 -197 0
-150 -198 0
-151 -199 0
-152 -200 0
-145 -249 0
-146 -250 0
-147 -251 0
-148 -252 0
-149 -253 0
-150 -254 0
-151 -255 0
-152 -256 0
-145 -209 0
-146 -210 0
-147 -211 0
-148 -212 0
-149 -213 0
-150 -214 0
-151 -215 0
-152 -216 0
-145 -273 0
-146 -274 0
-147 -275 0
-148 -276 0
-149 -277 0
-150 -278 0
-151 -279 0
-152 -280 0
-153 -289 0
-154 -290 0
-155 -291 0
-156 -292 0
-157 -293 0
-158 -294 0
-159 -295 0
-160 -296 0
-153 -233 0
-154 -234 0
-155 -235 0
-156 -236 0
-157 -237 0
-158 -238 0
-159 -239 0
-160 -240 0
-153 -185 0
-154 -186 0
-155 -187 0
-156 -188 0
-157 -189 0
-158 -190 0
-159 -191 0
-160 -192 0
-153 -161 0
-154 -162 0
-155 -163 0
-156 -164 0
-157 -165 0
-158 -166 0
-159 -167 0
-160 -168 0
-153 -321 0
-154 -322 0
-155 -323 0
-156 -324 0
-157 -325 0
-158 -326 0
-159 -327 0
-160 -328 0
-153 -177 0
-154 -178 0
-155 -179 0
-156 -180 0
-157 -181 0
-158 -182 0
-159 -183 0
-160 -184 0
-153 -201 0
-154 -202 0
-155 -203 0
-156 -204 0
-157 -205 0
-158 -206 0
-159 -207 0
-160 -208 0
-153 -273 0
-154 -274 0
-155 -275 0
-156 -276 0
-157 -277 0
-158 -278 0
-159 -279 0
-160 -280 0
-161 -289 0
-162 -290 0
-163 -291 0
-164 -292 0
-165 -293 0
-166 -294 0
-167 -295 0
-168 -296 0
-161 -233 0
-162 -234 0
-163 -235 0
-164 -236 0
-165 -237 0
-166 -238 0
-167 -239 0
-168 -240 0
-161 -185 0
-162 -186 0
-163 -187 0
-164 -188 0
-165 -189 0
-166 -190 0
-167 -191 0
-168 -192 0
-161 -273 0
-162 -274 0
-163 -275 0
-164 -276 0
-165 -277 0
-166 -278 0
-167 -279 0
-168 -280 0
-161 -321 0
-162 -322 0
-163 -323 0
-164 -324 0
-165 -325 0
-166 -326 0
-167 -327 0
-168 -328 0
-161 -177 0
-162 -178 0
-163 -179 0
-164 -180 0
-165 -181 0
-166 -182 0
-167 -183 0
-168 -184 0
-161 -265 0
-162 -266 0
-163 -267 0
-164 -268 0
-165 -269 0
-166 -270 0
-167 -271 0
-168 -272 0
-161 -201 0
-162 -202 0
-163 -203 0
-164 -204 0
-165 -205 0
-166 -206 0
-167 -207 0
-168 -208 0
-161 -313 0
-162 -314 0
-163 -315 0
-164 -316 0
-165 -317 0
-166 -318 0
-167 -319 0
-168 -320 0
-161 -193 0
-162 -194 0
-163 -195 0
-164 -196 0
-165 -197 0
-166 -198 0
-167 -199 0
-168 -200 0
-161 -281 0
-162 -282 0
-163 -283 0
-164 -284 0
-165 -285 0
-166 -286 0
-167 -287 0
-168 -288 0
-169 -177 0
-170 -178 0
-171 -179 0
-172 -180 0
-173 -181 0
-174 -182 0
-175 -183 0
-176 -184 0
-169 -193 0
-170 -194 0
-171 -195 0
-172 -196 0
-173 -197 0
-174 -198 0
-175 -199 0
-176 -200 0
-169 -297 0
-170 -298 0
-171 -299 0
-172 -300 0
-173 -301 0
-174 -302 0
-175 -303 0
-176 -304 0
-169 -249 0
-170 -250 0
-171 -251 0
-172 -252 0
-173 -253 0
-174 -254 0
-175 -255 0
-176 -256 0
-169 -257 0
-170 -258 0
-171 -259 0
-172 -260 0
-173 -261 0
-174 -262 0
-175 -263 0
-176 -264 0
-169 -241 0
-170 -242 0
-171 -243 0
-172 -244 0
-173 -245 0
-174 -246 0
-175 -247 0
-176 -248 0
-169 -329 0
-170 -330 0
-171 -331 0
-172 -332 0
-173 -333 0
-174 -334 0
-175 -335 0
-176 -336 0
-177 -321 0
-178 -322 0
-179 -323 0
-180 -324 0
-181 -325 0
-182 -326 0
-183 -327 0
-184 -328 0
-177 -297 0
-178 -298 0
-179 -299 0
-180 -300 0
-181 -301 0
-182 -302 0
-183 -303 0
-184 -304 0
-177 -201 0
-178 -202 0
-179 -203 0
-180 -204 0
-181 -205 0
-182 -206 0
-183 -207 0
-184 -208 0
-177 -193 0
-178 -194 0
-179 -195 0
-180 -196 0
-181 -197 0
-182 -198 0
-183 -199 0
-184 -200 0
-177 -329 0
-178 -330 0
-179 -331 0
-180 -332 0
-181 -333 0
-182 -334 0
-183 -335 0
-184 -336 0
-185 -289 0
-186 -290 0
-187 -291 0
-188 -292 0
-189 -293 0
-190 -294 0
-191 -295 0
-192 -296 0
-185 -233 0
-186 -234 0
-187 -235 0
-188 -236 0
-189 -237 0
-190 -238 0
-191 -239 0
-192 -240 0
-185 -265 0
-186 -266 0
-187 -267 0
-188 -268 0
-189 -269 0
-190 -270 0
-191 -271 0
-192 -272 0
-185 -281 0
-186 -282 0
-187 -283 0
-188 -284 0
-189 -285 0
-190 -286 0
-191 -287 0
-192 -288 0
-185 -273 0
-186 -274 0
-187 -275 0
-188 -276 0
-189 -277 0
-190 -278 0
-191 -279 0
-192 -280 0
-185 -225 0
-186 -226 0
-187 -227 0
-188 -228 0
-189 -229 0
-190 -230 0
-191 -231 0
-192 -232 0
-185 -201 0
-186 -202 0
-187 -203 0
-188 -204 0
-189 -205 0
-190 -206 0
-191 -207 0
-192 -208 0
-185 -313 0
-186 -314 0
-187 -315 0
-188 -316 0
-189 -317 0
-190 -318 0
-191 -319 0
-192 -320 0
-185 -193 0
-186 -194 0
-187 -195 0
-188 -196 0
-189 -197 0
-190 -198 0
-191 -199 0
-192 -200 0
-185 -209 0
-186 -210 0
-187 -211 0
-188 -212 0
-189 -213 0
-190 -214 0
-191 -215 0
-192 -216 0
-193 -313 0
-194 -314 0
-195 -315 0
-196 -316 0
-197 -317 0
-198 -318 0
-199 -319 0
-200 -320 0
-193 -273 0
-194 -274 0
-195 -275 0
-196 -276 0
-197 -277 0
-198 -278 0
-199 -279 0
-200 -280 0
-193 -297 0
-194 -298 0
-195 -299 0
-196 -300 0
-197 -301 0
-198 -302 0
-199 -303 0
-200 -304 0
-193 -281 0
-194 -282 0
-195 -283 0
-196 -284 0
-197 -285 0
-198 -286 0
-199 -287 0
-200 -288 0
-201 -289 0
-202 -290 0
-203 -291 0
-204 -292 0
-205 -293 0
-206 -294 0
-207 -295 0
-208 -296 0
-201 -233 0
-202 -234 0
-203 -235 0
-204 -236 0
-205 -237 0
-206 -238 0
-207 -239 0
-208 -240 0
-201 -321 0
-202 -322 0
-203 -323 0
-204 -324 0
-205 -325 0
-206 -326 0
-207 -327 0
-208 -328 0
-201 -209 0
-202 -210 0
-203 -211 0
-204 -212 0
-205 -213 0
-206 -214 0
-207 -215 0
-208 -216 0
-201 -217 0
-202 -218 0
-203 -219 0
-204 -220 0
-205 -221 0
-206 -222 0
-207 -223 0
-208 -224 0
-201 -305 0
-202 -306 0
-203 -307 0
-204 -308 0
-205 -309 0
-206 -310 0
-207 -311 0
-208 -312 0
-209 -289 0
-210 -290 0
-211 -291 0
-212 -292 0
-213 -293 0
-214 -294 0
-215 -295 0
-216 -296 0
-209 -233 0
-210 -234 0
-211 -235 0
-212 -236 0
-213 -237 0
-214 -238 0
-215 -239 0
-216 -240 0
-209 -265 0
-210 -266 0
-211 -267 0
-212 -268 0
-213 -269 0
-214 -270 0
-215 -271 0
-216 -272 0
-209 -225 0
-210 -226 0
-211 -227 0
-212 -228 0
-213 -229 0
-214 -230 0
-215 -231 0
-216 -232 0
-209 -305 0
-210 -306 0
-211 -307 0
-212 -308 0
-213 -309 0
-214 -310 0
-215 -311 0
-216 -312 0
-209 -281 0
-210 -282 0
-211 -283 0
-212 -284 0
-213 -285 0
-214 -286 0
-215 -287 0
-216 -288 0
-209 -217 0
-210 -218 0
-211 -219 0
-212 -220 0
-213 -221 0
-214 -222 0
-215 -223 0
-216 -224 0
-217 -321 0
-218 -322 0
-219 -323 0
-220 -324 0
-221 -325 0
-222 -326 0
-223 -327 0
-224 -328 0
-217 -257 0
-218 -258 0
-219 -259 0
-220 -260 0
-221 -261 0
-222 -262 0
-223 -263 0
-224 -264 0
-217 -305 0
-218 -306 0
-219 -307 0
-220 -308 0
-221 -309 0
-222 -310 0
-223 -311 0
-224 -312 0
-217 -329 0
-218 -330 0
-219 -331 0
-220 -332 0
-221 -333 0
-222 -334 0
-223 -335 0
-224 -336 0
-225 -289 0
-226 -290 0
-227 -291 0
-228 -292 0
-229 -293 0
-230 -294 0
-231 -295 0
-232 -296 0
-225 -265 0
-226 -266 0
-227 -267 0
-228 -268 0
-229 -269 0
-230 -270 0
-231 -271 0
-232 -272 0
-225 -313 0
-226 -314 0
-227 -315 0
-228 -316 0
-229 -317 0
-230 -318 0
-231 -319 0
-232 -320 0
-225 -249 0
-226 -250 0
-227 -251 0
-228 -252 0
-229 -253 0
-230 -254 0
-231 -255 0
-232 -256 0
-225 -257 0
-226 -258 0
-227 -259 0
-228 -260 0
-229 -261 0
-230 -262 0
-231 -263 0
-232 -264 0
-225 -281 0
-226 -282 0
-227 -283 0
-228 -284 0
-229 -285 0
-230 -286 0
-231 -287 0
-232 -288 0
-225 -305 0
-226 -306 0
-227 -307 0
-228 -308 0
-229 -309 0
-230 -310 0
-231 -311 0
-232 -312 0
-233 -289 0
-234 -290 0
-235 -291 0
-236 -292 0
-237 -293 0
-238 -294 0
-239 -295 0
-240 -296 0
-233 -321 0
-234 -322 0
-235 -323 0
-236 -324 0
-237 -325 0
-238 -326 0
-239 -327 0
-240 -328 0
-233 -265 0
-234 -266 0
-235 -267 0
-236 -268 0
-237 -269 0
-238 -270 0
-239 -271 0
-240 -272 0
-233 -281 0
-234 -282 0
-235 -283 0
-236 -284 0
-237 -285 0
-238 -286 0
-239 -287 0
-240 -288 0
-233 -273 0
-234 -274 0
-235 -275 0
-236 -276 0
-237 -277 0
-238 -278 0
-239 -279 0
-240 -280 0
-233 -305 0
-234 -306 0
-235 -307 0
-236 -308 0
-237 -309 0
-238 -310 0
-239 -311 0
-240 -312 0
-241 -297 0
-242 -298 0
-243 -299 0
-244 -300 0
-245 -301 0
-246 -302 0
-247 -303 0
-248 -304 0
-241 -249 0
-242 -250 0
-243 -251 0
-244 -252 0
-245 -253 0
-246 -254 0
-247 -255 0
-248 -256 0
-241 -257 0
-242 -258 0
-243 -259 0
-244 -260 0
-245 -261 0
-246 -262 0
-247 -263 0
-248 -264 0
-241 -329 0
-242 -330 0
-243 -331 0
-244 -332 0
-245 -333 0
-246 -334 0
-247 -335 0
-248 -336 0
-249 -313 0
-250 -314 0
-251 -315 0
-252 -316 0
-253 -317 0
-254 -318 0
-255 -319 0
-256 -320 0
-249 -257 0
-250 -258 0
-251 -259 0
-252 -260 0
-253 -261 0
-254 -262 0
-255 -263 0
-256 -264 0
-249 -329 0
-250 -330 0
-251 -331 0
-252 -332 0
-253 -333 0
-254 -334 0
-255 -335 0
-256 -336 0
-257 -329 0
-258 -330 0
-259 -331 0
-260 -332 0
-261 -333 0
-262 -334 0
-263 -335 0
-264 -336 0
-257 -305 0
-258 -306 0
-259 -307 0
-260 -308 0
-261 -309 0
-262 -310 0
-263 -311 0
-264 -312 0
-265 -289 0
-266 -290 0
-267 -291 0
-268 -292 0
-269 -293 0
-270 -294 0
-271 -295 0
-272 -296 0
-265 -281 0
-266 -282 0
-267 -283 0
-268 -284 0
-269 -285 0
-270 -286 0
-271 -287 0
-272 -288 0
-265 -313 0
-266 -314 0
-267 -315 0
-268 -316 0
-269 -317 0
-270 -318 0
-271 -319 0
-272 -320 0
-265 -273 0
-266 -274 0
-267 -275 0
-268 -276 0
-269 -277 0
-270 -278 0
-271 -279 0
-272 -280 0
-265 -305 0
-266 -306 0
-267 -307 0
-268 -308 0
-269 -309 0
-270 -310 0
-271 -311 0
-272 -312 0
-273 -289 0
-274 -290 0
-275 -291 0
-276 -292 0
-277 -293 0
-278 -294 0
-279 -295 0
-280 -296 0
-273 -313 0
-274 -314 0
-275 -315 0
-276 -316 0
-277 -317 0
-278 -318 0
-279 -319 0
-280 -320 0
-273 -281 0
-274 -282 0
-275 -283 0
-276 -284 0
-277 -285 0
-278 -286 0
-279 -287 0
-280 -288 0
-281 -289 0
-282 -290 0
-283 -291 0
-284 -292 0
-285 -293 0
-286 -294 0
-287 -295 0
-288 -296 0
-281 -313 0
-282 -314 0
-283 -315 0
-284 -316 0
-285 -317 0
-286 -318 0
-287 -319 0
-288 -320 0
-289 -305 0
-290 -306 0
-291 -307 0
-292 -308 0
-293 -309 0
-294 -310 0
-295 -311 0
-296 -312 0
-297 -321 0
-298 -322 0
-299 -323 0
-300 -324 0
-301 -325 0
-302 -326 0
-303 -327 0
-304 -328 0
-297 -329 0
-298 -330 0
-299 -331 0
-300 -332 0
-301 -333 0
-302 -334 0
-303 -335 0
-304 -336 0
1 2 3 4 5 6 7 8 0
9 10 11 12 13 14 15 16 0
17 18 19 20 21 22 23 24 0
25 26 27 28 29 30 31 32 0
33 34 35 36 37 38 39 40 0
41 42 43 44 45 46 47 48 0
49 50 51 52 53 54 55 56 0
57 58 59 60 61 62 63 64 0
65 66 67 68 69 70 71 72 0
73 74 75 76 77 78 79 80 0
81 82 83 84 85 86 87 88 0
89 90 91 92 93 94 95 96 0
97 98 99 100 101 102 103 104 0
105 106 107 108 109 110 111 112 0
113 114 115 116 117 118 119 120 0
121 122 123 124 125 126 127 128 0
129 130 131 132 133 134 135 136 0
137 138 139 140 141 142 143 144 0
145 146 147 148 149 150 151 152 0
153 154 155 156 157 158 159 160 0
161 162 163 164 165 166 167 168 0
169 170 171 172 173 174 175 176 0
177 178 179 180 181 182 183 184 0
185 186 187 188 189 190 191 192 0
193 194 195 196 197 198 199 200 0
201 202 203 204 205 206 207 208 0
209 210 211 212 213 214 215 216 0
217 218 219 220 221 222 223 224 0
225 226 227 228 229 230 231 232 0
233 234 235 236 237 238 239 240 0
241 242 243 244 245 246 247 248 0
249 250 251 252 253 254 255 256 0
257 258 259 260 261 262 263 264 0
265 266 267 268 269 270 271 272 0
273 274 275 276 277 278 279 280 0
281 282 283 284 285 286 287 288 0
289 290 291 292 293 294 295 296 0
297 298 299 300 301 302 303 304 0
305 306 307 308 309 310 311 312 0
313 314 315 316 317 318 319 320 0
321 322 323 324 325 326 327 328 0
329 330 331 332 333 334 335 336 0
